44
 1 44 1
 2 720 16
 3 460 10
 4 799 17
 5 192 4
 6 98 2
 7 600 12
 8 459 9
 9 364 7
 10 371 7
 11 162 3
 12 1045 19
 13 280 5
 14 570 10
 15 290 5
 16 826 14
 17 420 7
 18 305 5
 19 1054 17
 20 1134 18
 21 1280 20
 22 130 2
 23 1122 17
 24 268 4
 25 680 10
 26 690 10
 27 1120 16
 28 1278 18
 29 792 11
 30 1022 14
 31 666 9
 32 975 13
 33 608 8
 34 385 5
 35 390 5
 36 237 3
 37 800 10
 38 891 11
 39 164 2
 40 913 11
 41 1680 20
 42 1445 17
 43 430 5
 44 870 10
792